p cnf 45 575
-1 -16 0
-1 -17 0
-1 -18 0
-1 -19 0
-1 -20 0
-2 -16 0
-2 -17 0
-2 -18 0
-2 -19 0
-2 -20 0
-3 -16 0
-3 -17 0
-3 -18 0
-3 -19 0
-3 -20 0
-4 -16 0
-4 -17 0
-4 -18 0
-4 -19 0
-4 -20 0
-5 -16 0
-5 -17 0
-5 -18 0
-5 -19 0
-5 -20 0
-1 -21 0
-1 -22 0
-1 -23 0
-1 -24 0
-1 -25 0
-2 -21 0
-2 -22 0
-2 -23 0
-2 -24 0
-2 -25 0
-3 -21 0
-3 -22 0
-3 -23 0
-3 -24 0
-3 -25 0
-4 -21 0
-4 -22 0
-4 -23 0
-4 -24 0
-4 -25 0
-5 -21 0
-5 -22 0
-5 -23 0
-5 -24 0
-5 -25 0
-1 -31 0
-1 -32 0
-1 -33 0
-1 -34 0
-1 -35 0
-2 -31 0
-2 -32 0
-2 -33 0
-2 -34 0
-2 -35 0
-3 -31 0
-3 -32 0
-3 -33 0
-3 -34 0
-3 -35 0
-4 -31 0
-4 -32 0
-4 -33 0
-4 -34 0
-4 -35 0
-5 -31 0
-5 -32 0
-5 -33 0
-5 -34 0
-5 -35 0
-1 -41 0
-1 -42 0
-1 -43 0
-1 -44 0
-1 -45 0
-2 -41 0
-2 -42 0
-2 -43 0
-2 -44 0
-2 -45 0
-3 -41 0
-3 -42 0
-3 -43 0
-3 -44 0
-3 -45 0
-4 -41 0
-4 -42 0
-4 -43 0
-4 -44 0
-4 -45 0
-5 -41 0
-5 -42 0
-5 -43 0
-5 -44 0
-5 -45 0
-6 -16 0
-6 -17 0
-6 -18 0
-6 -19 0
-6 -20 0
-7 -16 0
-7 -17 0
-7 -18 0
-7 -19 0
-7 -20 0
-8 -16 0
-8 -17 0
-8 -18 0
-8 -19 0
-8 -20 0
-9 -16 0
-9 -17 0
-9 -18 0
-9 -19 0
-9 -20 0
-10 -16 0
-10 -17 0
-10 -18 0
-10 -19 0
-10 -20 0
-11 -16 0
-11 -17 0
-11 -18 0
-11 -19 0
-11 -20 0
-12 -16 0
-12 -17 0
-12 -18 0
-12 -19 0
-12 -20 0
-13 -16 0
-13 -17 0
-13 -18 0
-13 -19 0
-13 -20 0
-14 -16 0
-14 -17 0
-14 -18 0
-14 -19 0
-14 -20 0
-15 -16 0
-15 -17 0
-15 -18 0
-15 -19 0
-15 -20 0
-16 -26 0
-16 -27 0
-16 -28 0
-16 -29 0
-16 -30 0
-17 -26 0
-17 -27 0
-17 -28 0
-17 -29 0
-17 -30 0
-18 -26 0
-18 -27 0
-18 -28 0
-18 -29 0
-18 -30 0
-19 -26 0
-19 -27 0
-19 -28 0
-19 -29 0
-19 -30 0
-20 -26 0
-20 -27 0
-20 -28 0
-20 -29 0
-20 -30 0
-16 -31 0
-16 -32 0
-16 -33 0
-16 -34 0
-16 -35 0
-17 -31 0
-17 -32 0
-17 -33 0
-17 -34 0
-17 -35 0
-18 -31 0
-18 -32 0
-18 -33 0
-18 -34 0
-18 -35 0
-19 -31 0
-19 -32 0
-19 -33 0
-19 -34 0
-19 -35 0
-20 -31 0
-20 -32 0
-20 -33 0
-20 -34 0
-20 -35 0
-21 -31 0
-21 -32 0
-21 -33 0
-21 -34 0
-21 -35 0
-22 -31 0
-22 -32 0
-22 -33 0
-22 -34 0
-22 -35 0
-23 -31 0
-23 -32 0
-23 -33 0
-23 -34 0
-23 -35 0
-24 -31 0
-24 -32 0
-24 -33 0
-24 -34 0
-24 -35 0
-25 -31 0
-25 -32 0
-25 -33 0
-25 -34 0
-25 -35 0
-26 -36 0
-26 -37 0
-26 -38 0
-26 -39 0
-26 -40 0
-27 -36 0
-27 -37 0
-27 -38 0
-27 -39 0
-27 -40 0
-28 -36 0
-28 -37 0
-28 -38 0
-28 -39 0
-28 -40 0
-29 -36 0
-29 -37 0
-29 -38 0
-29 -39 0
-29 -40 0
-30 -36 0
-30 -37 0
-30 -38 0
-30 -39 0
-30 -40 0
-26 -41 0
-26 -42 0
-26 -43 0
-26 -44 0
-26 -45 0
-27 -41 0
-27 -42 0
-27 -43 0
-27 -44 0
-27 -45 0
-28 -41 0
-28 -42 0
-28 -43 0
-28 -44 0
-28 -45 0
-29 -41 0
-29 -42 0
-29 -43 0
-29 -44 0
-29 -45 0
-30 -41 0
-30 -42 0
-30 -43 0
-30 -44 0
-30 -45 0
-31 -41 0
-31 -42 0
-31 -43 0
-31 -44 0
-31 -45 0
-32 -41 0
-32 -42 0
-32 -43 0
-32 -44 0
-32 -45 0
-33 -41 0
-33 -42 0
-33 -43 0
-33 -44 0
-33 -45 0
-34 -41 0
-34 -42 0
-34 -43 0
-34 -44 0
-34 -45 0
-35 -41 0
-35 -42 0
-35 -43 0
-35 -44 0
-35 -45 0
-1 -6 0
-1 -11 0
-1 -16 0
-1 -21 0
-1 -26 0
-1 -31 0
-1 -36 0
-1 -41 0
-6 -11 0
-6 -16 0
-6 -21 0
-6 -26 0
-6 -31 0
-6 -36 0
-6 -41 0
-11 -16 0
-11 -21 0
-11 -26 0
-11 -31 0
-11 -36 0
-11 -41 0
-16 -21 0
-16 -26 0
-16 -31 0
-16 -36 0
-16 -41 0
-21 -26 0
-21 -31 0
-21 -36 0
-21 -41 0
-26 -31 0
-26 -36 0
-26 -41 0
-31 -36 0
-31 -41 0
-36 -41 0
1 6 11 16 21 26 31 36 41 0
-2 -7 0
-2 -12 0
-2 -17 0
-2 -22 0
-2 -27 0
-2 -32 0
-2 -37 0
-2 -42 0
-7 -12 0
-7 -17 0
-7 -22 0
-7 -27 0
-7 -32 0
-7 -37 0
-7 -42 0
-12 -17 0
-12 -22 0
-12 -27 0
-12 -32 0
-12 -37 0
-12 -42 0
-17 -22 0
-17 -27 0
-17 -32 0
-17 -37 0
-17 -42 0
-22 -27 0
-22 -32 0
-22 -37 0
-22 -42 0
-27 -32 0
-27 -37 0
-27 -42 0
-32 -37 0
-32 -42 0
-37 -42 0
2 7 12 17 22 27 32 37 42 0
-3 -8 0
-3 -13 0
-3 -18 0
-3 -23 0
-3 -28 0
-3 -33 0
-3 -38 0
-3 -43 0
-8 -13 0
-8 -18 0
-8 -23 0
-8 -28 0
-8 -33 0
-8 -38 0
-8 -43 0
-13 -18 0
-13 -23 0
-13 -28 0
-13 -33 0
-13 -38 0
-13 -43 0
-18 -23 0
-18 -28 0
-18 -33 0
-18 -38 0
-18 -43 0
-23 -28 0
-23 -33 0
-23 -38 0
-23 -43 0
-28 -33 0
-28 -38 0
-28 -43 0
-33 -38 0
-33 -43 0
-38 -43 0
3 8 13 18 23 28 33 38 43 0
-4 -9 0
-4 -14 0
-4 -19 0
-4 -24 0
-4 -29 0
-4 -34 0
-4 -39 0
-4 -44 0
-9 -14 0
-9 -19 0
-9 -24 0
-9 -29 0
-9 -34 0
-9 -39 0
-9 -44 0
-14 -19 0
-14 -24 0
-14 -29 0
-14 -34 0
-14 -39 0
-14 -44 0
-19 -24 0
-19 -29 0
-19 -34 0
-19 -39 0
-19 -44 0
-24 -29 0
-24 -34 0
-24 -39 0
-24 -44 0
-29 -34 0
-29 -39 0
-29 -44 0
-34 -39 0
-34 -44 0
-39 -44 0
4 9 14 19 24 29 34 39 44 0
-5 -10 0
-5 -15 0
-5 -20 0
-5 -25 0
-5 -30 0
-5 -35 0
-5 -40 0
-5 -45 0
-10 -15 0
-10 -20 0
-10 -25 0
-10 -30 0
-10 -35 0
-10 -40 0
-10 -45 0
-15 -20 0
-15 -25 0
-15 -30 0
-15 -35 0
-15 -40 0
-15 -45 0
-20 -25 0
-20 -30 0
-20 -35 0
-20 -40 0
-20 -45 0
-25 -30 0
-25 -35 0
-25 -40 0
-25 -45 0
-30 -35 0
-30 -40 0
-30 -45 0
-35 -40 0
-35 -45 0
-40 -45 0
5 10 15 20 25 30 35 40 45 0
-1 -2 0
-1 -3 0
-1 -4 0
-1 -5 0
-2 -3 0
-2 -4 0
-2 -5 0
-3 -4 0
-3 -5 0
-4 -5 0
-6 -7 0
-6 -8 0
-6 -9 0
-6 -10 0
-7 -8 0
-7 -9 0
-7 -10 0
-8 -9 0
-8 -10 0
-9 -10 0
-11 -12 0
-11 -13 0
-11 -14 0
-11 -15 0
-12 -13 0
-12 -14 0
-12 -15 0
-13 -14 0
-13 -15 0
-14 -15 0
-16 -17 0
-16 -18 0
-16 -19 0
-16 -20 0
-17 -18 0
-17 -19 0
-17 -20 0
-18 -19 0
-18 -20 0
-19 -20 0
-21 -22 0
-21 -23 0
-21 -24 0
-21 -25 0
-22 -23 0
-22 -24 0
-22 -25 0
-23 -24 0
-23 -25 0
-24 -25 0
-26 -27 0
-26 -28 0
-26 -29 0
-26 -30 0
-27 -28 0
-27 -29 0
-27 -30 0
-28 -29 0
-28 -30 0
-29 -30 0
-31 -32 0
-31 -33 0
-31 -34 0
-31 -35 0
-32 -33 0
-32 -34 0
-32 -35 0
-33 -34 0
-33 -35 0
-34 -35 0
-36 -37 0
-36 -38 0
-36 -39 0
-36 -40 0
-37 -38 0
-37 -39 0
-37 -40 0
-38 -39 0
-38 -40 0
-39 -40 0
-41 -42 0
-41 -43 0
-41 -44 0
-41 -45 0
-42 -43 0
-42 -44 0
-42 -45 0
-43 -44 0
-43 -45 0
-44 -45 0
